c read Graph
c width = 75
c time = 57 ms
c width = 11
c time = 89 ms
c width = 10
c time = 130 ms
c width = 9
c time = 156 ms
c width = 8
c time = 1174 ms
c width = 8
c time = 5020 ms
s td 80 9 88
b 1 1 2 12
b 2 2 3 12 13
b 3 9 10 21 22
b 4 3 12 13 23
b 5 9 21 22 33
b 6 56 67 68 79
b 7 66 76 77 87
b 8 56 68 79 80
b 9 66 76 86 87
b 10 3 4 5 15
b 11 3 5 14 15 24 34
b 12 5 14 15 24 26 34 36
b 13 5 15 24 26 34 36 46
b 14 5 15 26 34 36 46 56
b 15 34 45 46 56
b 16 5 15 17 26 27 36 46 56
b 17 5 15 16 17 27
b 18 5 17 26 27 36 37 46 56
b 19 5 17 27 28 36 37 38 46 56
b 20 5 17 28 36 37 38 46 47 56
b 21 5 17 28 37 38 46 47 48 56
b 22 5 17 28 38 46 47 48 56 57
b 23 5 17 28 38 47 48 56 57 58
b 24 5 17 28 38 48 56 57 58 68
b 25 5 17 28 38 48 56 58 68 80
b 26 5 17 28 38 48 58 68 69 80
b 27 5 17 28 38 48 58 59 69 80
b 28 5 17 28 38 48 49 59 69 80
b 29 5 17 28 38 39 49 59 69 80
b 30 5 17 28 29 39 49 59 69 80
b 31 5 17 29 39 49 59 69 70 80
b 32 5 17 29 39 49 59 60 70 80
b 33 5 17 29 39 49 50 60 70 80
b 34 5 17 29 39 40 50 60 70 80
b 35 5 17 29 40 50 60 70 80 81
b 36 5 17 29 40 50 60 70 71 81
b 37 5 17 29 40 50 60 61 71 81
b 38 5 17 29 40 50 51 61 71 81
b 39 5 17 29 40 41 51 61 71 81
b 40 5 17 29 41 51 61 71 81 82
b 41 5 17 29 41 51 61 71 72 82
b 42 5 17 29 41 51 61 62 72 82
b 43 5 17 29 41 51 52 62 72 82
b 44 5 17 29 41 52 62 72 82 83
b 45 5 17 29 41 52 62 72 73 83
b 46 5 17 29 41 52 62 63 73 83
b 47 5 17 29 41 52 53 63 73 83
b 48 5 17 29 41 53 63 73 83 84
b 49 5 17 29 41 53 63 73 74 84
b 50 5 17 29 41 53 63 74 84 85
b 51 5 17 29 41 53 63 74 75 85
b 52 5 17 29 41 53 63 65 75 85
b 53 5 17 29 41 53 65 66 75 85
b 54 5 17 29 41 53 54 65 66 85
b 55 5 17 29 41 44 53 54 66 85
b 56 44 54 55 66
b 57 65 66 75 85 86
b 58 65 66 75 76 86
b 59 53 63 64 65 75
b 60 24 34 35 36 46
b 61 14 24 25 26 36
b 62 3 14 23 24 34
b 63 3 13 14 23 24
b 64 7 8 9 19
b 65 5 7 17 29 41 44 53 54
b 66 7 17 19 29 41 44 53 54
b 67 9 19 20 30 41 44 53 54
b 68 7 9 19 29 41 44 53 54
b 69 9 19 29 30 41 44 53 54
b 70 9 20 30 41 42 44 53 54
b 71 9 20 30 32 42 44 54
b 72 32 42 43 44 54
b 73 20 30 31 32 42
b 74 9 20 32 33 44
b 75 9 20 21 32 33
b 76 7 17 18 19 29
b 77 5 6 7 17
b 78 77 87 88
b 79 67 78 79
b 80 10 11 22
1 2
2 4
3 80
3 5
4 63
5 75
6 79
6 8
7 78
7 9
8 25
9 58
10 11
11 62
11 12
12 61
12 13
13 60
13 14
14 16
14 15
16 18
16 17
18 19
19 20
20 21
21 22
22 23
23 24
24 25
25 26
26 27
27 28
28 29
29 30
30 31
31 32
32 33
33 34
34 35
35 36
36 37
37 38
38 39
39 40
40 41
41 42
42 43
43 44
44 45
45 46
46 47
47 48
48 49
49 50
50 51
51 52
52 59
52 53
53 57
53 54
54 55
55 65
55 56
57 58
62 63
64 68
65 77
65 66
66 76
66 68
67 70
67 69
68 69
70 71
71 74
71 72
71 73
74 75
